10	5
0	5	5	2	4	1	3
1	1	10
2	2	9	10
3	2	7	10
4	2	10	8
5	2	10	6
6	2	9	7
7	1	8
8	1	11
9	1	11
10	1	11
11	0
0	0	0	0	0	0	0
1	9	1	1	2	4	2
2	5	2	4	5	2	4
3	5	2	2	3	1	5
4	7	1	2	3	3	2
5	8	3	1	1	2	4
6	2	4	5	2	4	5
7	4	3	5	5	4	4
8	4	3	4	2	5	1
9	1	3	2	5	3	4
10	10	5	5	3	4	1
11	0	0	0	0	0	0
8	8	9	9	10
